Name: eil76.out.tour
COMMENT: Tour for eil76.out.tour
TYPE: TOUR
DIMENSION: 76
TOUR SECTION 
1
73
62
28
74
30
48
47
36
69
21
29
45
27
52
34
67
76
75
68
6
51
17
40
12
4
26
46
8
35
53
14
59
11
66
65
38
10
58
72
39
9
32
50
25
55
18
44
3
31
7
19
13
54
5
37
20
70
60
71
15
57
2
61
22
33
63
23
56
16
49
24
43
41
42
64
1
-1
EOF
